c DESCRIPTION: Quasi-random coloring problem
c CODE SOURCE: Joseph Culberson (joe@cs.ualberta.ca)
c Specifications: 
c   Random seed: 199233
c   No hidden coloring
c   Probability: 0.500000
c   random IID graph
c   Degree Information:
c   Min:39 Avg:49.120000 Max:61 Std:4.389260
c No verification required.
c Creation Date: Fri Aug  8 11:40:09 2003
p edge 100 2456
c no cheat
e 2 1
e 3 1
e 4 1
e 5 2
e 5 3
e 5 4
e 6 1
e 6 3
e 7 1
e 7 2
e 7 5
e 7 6
e 8 5
e 8 6
e 9 2
e 9 6
e 9 7
e 9 8
e 10 1
e 10 3
e 10 5
e 10 7
e 10 9
e 11 1
e 11 4
e 11 5
e 11 9
e 12 5
e 12 6
e 12 7
e 12 8
e 12 9
e 12 11
e 13 1
e 13 2
e 13 6
e 13 7
e 13 8
e 13 9
e 13 11
e 13 12
e 14 2
e 14 4
e 14 7
e 14 9
e 14 13
e 15 2
e 15 8
e 15 9
e 15 10
e 15 12
e 15 13
e 16 5
e 16 6
e 16 9
e 16 11
e 16 12
e 16 13
e 16 15
e 17 1
e 17 7
e 17 9
e 17 10
e 17 12
e 17 14
e 17 15
e 17 16
e 18 4
e 18 5
e 18 6
e 18 7
e 18 10
e 18 11
e 18 13
e 18 14
e 18 17
e 19 4
e 19 6
e 19 7
e 19 11
e 19 12
e 19 16
e 19 18
e 20 2
e 20 3
e 20 5
e 20 6
e 20 7
e 20 10
e 20 12
e 20 13
e 20 14
e 20 15
e 20 16
e 21 1
e 21 4
e 21 5
e 21 6
e 21 8
e 21 10
e 21 11
e 21 13
e 21 18
e 21 19
e 21 20
e 22 1
e 22 2
e 22 3
e 22 4
e 22 5
e 22 8
e 22 9
e 22 12
e 22 18
e 23 2
e 23 4
e 23 5
e 23 8
e 23 11
e 23 12
e 23 14
e 23 15
e 23 18
e 23 20
e 23 21
e 24 2
e 24 4
e 24 5
e 24 8
e 24 9
e 24 10
e 24 12
e 24 15
e 24 20
e 24 22
e 24 23
e 25 1
e 25 6
e 25 7
e 25 8
e 25 10
e 25 11
e 25 12
e 25 13
e 25 14
e 25 15
e 25 18
e 25 23
e 26 1
e 26 3
e 26 5
e 26 7
e 26 8
e 26 9
e 26 11
e 26 12
e 26 13
e 26 15
e 26 17
e 26 21
e 26 25
e 27 1
e 27 3
e 27 6
e 27 8
e 27 10
e 27 11
e 27 15
e 27 18
e 27 19
e 27 20
e 27 23
e 27 25
e 28 1
e 28 6
e 28 8
e 28 9
e 28 11
e 28 13
e 28 15
e 28 17
e 28 18
e 28 19
e 28 23
e 29 1
e 29 3
e 29 8
e 29 9
e 29 14
e 29 16
e 29 17
e 29 18
e 29 19
e 29 20
e 29 23
e 29 24
e 29 26
e 30 1
e 30 2
e 30 3
e 30 5
e 30 7
e 30 12
e 30 14
e 30 16
e 30 17
e 30 18
e 30 20
e 30 21
e 30 23
e 30 24
e 30 25
e 30 27
e 30 28
e 31 3
e 31 6
e 31 9
e 31 11
e 31 12
e 31 13
e 31 14
e 31 17
e 31 18
e 31 20
e 31 21
e 31 22
e 31 30
e 32 3
e 32 5
e 32 6
e 32 10
e 32 13
e 32 14
e 32 16
e 32 19
e 32 20
e 32 22
e 32 23
e 32 24
e 32 25
e 32 26
e 32 27
e 32 30
e 32 31
e 33 2
e 33 4
e 33 6
e 33 7
e 33 8
e 33 9
e 33 10
e 33 14
e 33 16
e 33 18
e 33 19
e 33 22
e 33 24
e 33 26
e 33 31
e 33 32
e 34 1
e 34 2
e 34 7
e 34 8
e 34 11
e 34 18
e 34 19
e 34 20
e 34 21
e 34 22
e 34 23
e 34 27
e 34 28
e 34 30
e 34 31
e 35 2
e 35 7
e 35 8
e 35 12
e 35 14
e 35 20
e 35 22
e 35 24
e 35 25
e 35 26
e 35 27
e 35 29
e 35 31
e 35 32
e 35 34
e 36 2
e 36 3
e 36 4
e 36 5
e 36 6
e 36 8
e 36 10
e 36 12
e 36 14
e 36 15
e 36 16
e 36 23
e 36 25
e 36 26
e 36 27
e 36 28
e 36 30
e 36 31
e 36 32
e 36 33
e 36 34
e 37 1
e 37 4
e 37 5
e 37 7
e 37 9
e 37 10
e 37 11
e 37 13
e 37 14
e 37 16
e 37 18
e 37 21
e 37 23
e 37 24
e 37 28
e 37 29
e 37 30
e 37 31
e 37 33
e 38 2
e 38 3
e 38 4
e 38 5
e 38 10
e 38 11
e 38 13
e 38 14
e 38 15
e 38 18
e 38 20
e 38 21
e 38 22
e 38 24
e 38 28
e 38 32
e 38 34
e 38 36
e 38 37
e 39 2
e 39 3
e 39 5
e 39 7
e 39 10
e 39 12
e 39 13
e 39 14
e 39 19
e 39 20
e 39 28
e 39 30
e 39 33
e 39 34
e 39 35
e 40 1
e 40 3
e 40 5
e 40 7
e 40 8
e 40 11
e 40 15
e 40 23
e 40 24
e 40 25
e 40 26
e 40 27
e 40 28
e 40 29
e 40 30
e 40 32
e 40 36
e 40 38
e 40 39
e 41 5
e 41 10
e 41 15
e 41 18
e 41 20
e 41 22
e 41 24
e 41 25
e 41 26
e 41 27
e 41 28
e 41 31
e 41 32
e 41 33
e 41 37
e 41 38
e 42 1
e 42 2
e 42 3
e 42 4
e 42 7
e 42 12
e 42 13
e 42 14
e 42 16
e 42 21
e 42 23
e 42 24
e 42 25
e 42 27
e 42 30
e 42 31
e 42 32
e 42 34
e 42 35
e 42 36
e 42 40
e 42 41
e 43 1
e 43 2
e 43 3
e 43 7
e 43 8
e 43 9
e 43 10
e 43 11
e 43 13
e 43 17
e 43 21
e 43 22
e 43 24
e 43 28
e 43 29
e 43 30
e 43 35
e 43 37
e 43 40
e 44 8
e 44 11
e 44 12
e 44 15
e 44 17
e 44 19
e 44 20
e 44 21
e 44 24
e 44 27
e 44 28
e 44 30
e 44 31
e 44 32
e 44 34
e 44 35
e 44 36
e 44 37
e 44 38
e 44 40
e 44 41
e 45 3
e 45 6
e 45 7
e 45 8
e 45 9
e 45 11
e 45 14
e 45 16
e 45 17
e 45 18
e 45 26
e 45 27
e 45 34
e 45 35
e 45 36
e 45 38
e 45 39
e 45 40
e 45 43
e 46 1
e 46 2
e 46 4
e 46 7
e 46 8
e 46 9
e 46 12
e 46 13
e 46 15
e 46 16
e 46 19
e 46 21
e 46 24
e 46 26
e 46 28
e 46 29
e 46 32
e 46 33
e 46 34
e 46 37
e 46 38
e 46 39
e 46 40
e 46 41
e 46 42
e 46 45
e 47 1
e 47 2
e 47 3
e 47 4
e 47 5
e 47 6
e 47 7
e 47 8
e 47 11
e 47 14
e 47 17
e 47 18
e 47 19
e 47 21
e 47 22
e 47 24
e 47 25
e 47 26
e 47 28
e 47 30
e 47 36
e 47 38
e 47 40
e 47 41
e 47 44
e 47 46
e 48 1
e 48 3
e 48 4
e 48 5
e 48 6
e 48 8
e 48 9
e 48 10
e 48 12
e 48 14
e 48 15
e 48 17
e 48 20
e 48 22
e 48 23
e 48 26
e 48 28
e 48 30
e 48 34
e 48 35
e 48 36
e 48 38
e 48 40
e 48 41
e 48 42
e 48 44
e 48 46
e 49 1
e 49 2
e 49 5
e 49 9
e 49 13
e 49 18
e 49 20
e 49 21
e 49 23
e 49 24
e 49 26
e 49 29
e 49 31
e 49 32
e 49 35
e 49 37
e 49 39
e 49 40
e 49 41
e 49 43
e 49 47
e 49 48
e 50 2
e 50 3
e 50 4
e 50 6
e 50 12
e 50 13
e 50 14
e 50 19
e 50 21
e 50 22
e 50 29
e 50 32
e 50 33
e 50 34
e 50 36
e 50 37
e 50 47
e 50 48
e 51 4
e 51 6
e 51 8
e 51 9
e 51 11
e 51 12
e 51 14
e 51 15
e 51 16
e 51 20
e 51 30
e 51 32
e 51 33
e 51 34
e 51 37
e 51 38
e 51 39
e 51 40
e 51 47
e 51 48
e 51 49
e 52 2
e 52 4
e 52 6
e 52 7
e 52 8
e 52 10
e 52 13
e 52 14
e 52 16
e 52 22
e 52 23
e 52 24
e 52 25
e 52 26
e 52 27
e 52 29
e 52 32
e 52 33
e 52 36
e 52 37
e 52 42
e 52 44
e 52 47
e 52 50
e 53 2
e 53 4
e 53 5
e 53 6
e 53 10
e 53 11
e 53 20
e 53 22
e 53 24
e 53 26
e 53 27
e 53 29
e 53 31
e 53 33
e 53 35
e 53 36
e 53 37
e 53 39
e 53 40
e 53 41
e 53 42
e 53 44
e 53 46
e 53 48
e 53 49
e 53 50
e 53 51
e 54 1
e 54 2
e 54 3
e 54 5
e 54 7
e 54 9
e 54 10
e 54 11
e 54 12
e 54 13
e 54 15
e 54 18
e 54 23
e 54 24
e 54 25
e 54 31
e 54 37
e 54 38
e 54 39
e 54 40
e 54 42
e 54 45
e 54 46
e 54 50
e 54 51
e 54 52
e 54 53
e 55 1
e 55 4
e 55 5
e 55 6
e 55 10
e 55 12
e 55 13
e 55 15
e 55 18
e 55 19
e 55 20
e 55 24
e 55 25
e 55 26
e 55 27
e 55 28
e 55 31
e 55 32
e 55 35
e 55 36
e 55 39
e 55 42
e 55 44
e 55 45
e 55 46
e 55 47
e 55 50
e 55 51
e 55 54
e 56 1
e 56 4
e 56 6
e 56 7
e 56 10
e 56 11
e 56 14
e 56 16
e 56 18
e 56 19
e 56 20
e 56 22
e 56 23
e 56 25
e 56 26
e 56 27
e 56 29
e 56 30
e 56 31
e 56 32
e 56 33
e 56 36
e 56 39
e 56 40
e 56 41
e 56 43
e 56 45
e 56 47
e 56 48
e 56 49
e 56 50
e 56 53
e 56 54
e 56 55
e 57 2
e 57 4
e 57 5
e 57 6
e 57 9
e 57 13
e 57 14
e 57 18
e 57 20
e 57 23
e 57 25
e 57 27
e 57 30
e 57 31
e 57 33
e 57 37
e 57 39
e 57 40
e 57 46
e 57 54
e 57 55
e 58 1
e 58 2
e 58 3
e 58 4
e 58 7
e 58 10
e 58 12
e 58 13
e 58 14
e 58 17
e 58 19
e 58 21
e 58 22
e 58 26
e 58 28
e 58 29
e 58 31
e 58 32
e 58 34
e 58 40
e 58 41
e 58 42
e 58 45
e 58 46
e 58 47
e 58 49
e 58 50
e 58 52
e 58 54
e 58 55
e 59 3
e 59 4
e 59 5
e 59 6
e 59 10
e 59 11
e 59 13
e 59 14
e 59 15
e 59 17
e 59 18
e 59 19
e 59 20
e 59 23
e 59 26
e 59 29
e 59 31
e 59 32
e 59 34
e 59 35
e 59 42
e 59 46
e 59 47
e 59 48
e 59 52
e 59 54
e 59 55
e 59 56
e 59 57
e 60 1
e 60 3
e 60 4
e 60 6
e 60 8
e 60 9
e 60 10
e 60 11
e 60 17
e 60 18
e 60 20
e 60 21
e 60 26
e 60 28
e 60 30
e 60 31
e 60 32
e 60 33
e 60 34
e 60 36
e 60 37
e 60 40
e 60 41
e 60 48
e 60 49
e 60 50
e 60 51
e 60 53
e 60 54
e 60 56
e 60 58
e 60 59
e 61 5
e 61 10
e 61 11
e 61 13
e 61 17
e 61 18
e 61 19
e 61 23
e 61 27
e 61 28
e 61 29
e 61 30
e 61 31
e 61 32
e 61 34
e 61 35
e 61 36
e 61 37
e 61 38
e 61 39
e 61 40
e 61 41
e 61 42
e 61 44
e 61 45
e 61 55
e 61 57
e 61 59
e 62 6
e 62 11
e 62 12
e 62 13
e 62 14
e 62 17
e 62 20
e 62 22
e 62 24
e 62 25
e 62 27
e 62 31
e 62 33
e 62 36
e 62 37
e 62 41
e 62 43
e 62 44
e 62 47
e 62 49
e 62 50
e 62 51
e 62 52
e 62 53
e 62 55
e 62 58
e 62 60
e 62 61
e 63 4
e 63 5
e 63 6
e 63 8
e 63 9
e 63 10
e 63 11
e 63 17
e 63 18
e 63 22
e 63 25
e 63 28
e 63 30
e 63 32
e 63 34
e 63 36
e 63 38
e 63 39
e 63 43
e 63 44
e 63 45
e 63 46
e 63 48
e 63 51
e 63 52
e 63 55
e 63 56
e 63 57
e 63 58
e 64 1
e 64 2
e 64 4
e 64 5
e 64 6
e 64 7
e 64 11
e 64 14
e 64 16
e 64 17
e 64 19
e 64 21
e 64 29
e 64 30
e 64 36
e 64 37
e 64 40
e 64 42
e 64 43
e 64 46
e 64 47
e 64 48
e 64 52
e 64 53
e 64 57
e 64 62
e 65 1
e 65 2
e 65 4
e 65 5
e 65 6
e 65 7
e 65 9
e 65 10
e 65 11
e 65 14
e 65 17
e 65 24
e 65 25
e 65 28
e 65 29
e 65 35
e 65 39
e 65 40
e 65 42
e 65 45
e 65 46
e 65 49
e 65 51
e 65 59
e 65 60
e 65 61
e 65 62
e 65 63
e 66 1
e 66 3
e 66 5
e 66 6
e 66 7
e 66 8
e 66 10
e 66 14
e 66 15
e 66 18
e 66 19
e 66 20
e 66 23
e 66 25
e 66 26
e 66 27
e 66 29
e 66 32
e 66 37
e 66 40
e 66 41
e 66 43
e 66 44
e 66 51
e 66 52
e 66 53
e 66 58
e 66 62
e 66 65
e 67 1
e 67 2
e 67 4
e 67 5
e 67 8
e 67 10
e 67 14
e 67 16
e 67 17
e 67 21
e 67 26
e 67 30
e 67 32
e 67 37
e 67 38
e 67 39
e 67 40
e 67 41
e 67 48
e 67 51
e 67 52
e 67 54
e 67 57
e 67 58
e 67 60
e 67 61
e 67 64
e 68 1
e 68 2
e 68 5
e 68 6
e 68 7
e 68 11
e 68 13
e 68 15
e 68 16
e 68 19
e 68 22
e 68 26
e 68 27
e 68 29
e 68 30
e 68 34
e 68 37
e 68 39
e 68 40
e 68 44
e 68 45
e 68 46
e 68 49
e 68 51
e 68 52
e 68 53
e 68 54
e 68 56
e 68 60
e 68 63
e 68 64
e 68 65
e 68 66
e 69 1
e 69 2
e 69 3
e 69 4
e 69 7
e 69 11
e 69 13
e 69 17
e 69 18
e 69 19
e 69 20
e 69 22
e 69 23
e 69 28
e 69 29
e 69 31
e 69 32
e 69 38
e 69 39
e 69 41
e 69 43
e 69 45
e 69 48
e 69 51
e 69 52
e 69 53
e 69 55
e 69 56
e 69 57
e 69 58
e 69 59
e 69 61
e 69 62
e 69 63
e 69 65
e 69 66
e 70 2
e 70 3
e 70 4
e 70 5
e 70 6
e 70 8
e 70 11
e 70 15
e 70 16
e 70 18
e 70 19
e 70 23
e 70 24
e 70 26
e 70 27
e 70 28
e 70 30
e 70 31
e 70 32
e 70 35
e 70 38
e 70 39
e 70 40
e 70 41
e 70 42
e 70 46
e 70 47
e 70 49
e 70 50
e 70 53
e 70 55
e 70 56
e 70 57
e 70 58
e 70 59
e 70 60
e 70 61
e 70 63
e 70 66
e 70 67
e 70 68
e 71 2
e 71 3
e 71 5
e 71 6
e 71 7
e 71 9
e 71 10
e 71 14
e 71 15
e 71 23
e 71 27
e 71 30
e 71 31
e 71 32
e 71 34
e 71 36
e 71 37
e 71 38
e 71 39
e 71 41
e 71 42
e 71 43
e 71 47
e 71 50
e 71 51
e 71 54
e 71 56
e 71 58
e 71 63
e 71 64
e 71 66
e 71 68
e 71 70
e 72 2
e 72 3
e 72 4
e 72 9
e 72 10
e 72 12
e 72 13
e 72 19
e 72 22
e 72 24
e 72 25
e 72 26
e 72 28
e 72 29
e 72 33
e 72 34
e 72 42
e 72 43
e 72 44
e 72 45
e 72 47
e 72 49
e 72 50
e 72 51
e 72 54
e 72 56
e 72 58
e 72 61
e 72 62
e 72 64
e 72 65
e 72 66
e 72 68
e 72 70
e 72 71
e 73 4
e 73 5
e 73 6
e 73 8
e 73 10
e 73 12
e 73 15
e 73 17
e 73 18
e 73 20
e 73 22
e 73 23
e 73 24
e 73 25
e 73 26
e 73 27
e 73 28
e 73 32
e 73 33
e 73 37
e 73 38
e 73 39
e 73 40
e 73 41
e 73 46
e 73 49
e 73 50
e 73 51
e 73 52
e 73 54
e 73 56
e 73 58
e 73 59
e 73 61
e 73 62
e 73 63
e 73 64
e 73 66
e 73 67
e 73 69
e 73 70
e 74 3
e 74 8
e 74 10
e 74 13
e 74 14
e 74 15
e 74 16
e 74 23
e 74 25
e 74 26
e 74 27
e 74 29
e 74 31
e 74 37
e 74 38
e 74 39
e 74 41
e 74 43
e 74 49
e 74 51
e 74 52
e 74 53
e 74 54
e 74 55
e 74 56
e 74 57
e 74 58
e 74 59
e 74 62
e 74 64
e 74 65
e 74 67
e 74 70
e 74 72
e 74 73
e 75 1
e 75 3
e 75 4
e 75 5
e 75 6
e 75 9
e 75 10
e 75 15
e 75 16
e 75 18
e 75 19
e 75 20
e 75 23
e 75 25
e 75 26
e 75 27
e 75 28
e 75 33
e 75 38
e 75 40
e 75 42
e 75 44
e 75 46
e 75 47
e 75 51
e 75 52
e 75 54
e 75 55
e 75 57
e 75 60
e 75 61
e 75 62
e 75 64
e 75 68
e 75 70
e 75 72
e 75 74
e 76 2
e 76 3
e 76 4
e 76 6
e 76 8
e 76 11
e 76 16
e 76 18
e 76 21
e 76 22
e 76 23
e 76 25
e 76 29
e 76 30
e 76 32
e 76 33
e 76 36
e 76 40
e 76 41
e 76 42
e 76 43
e 76 44
e 76 45
e 76 46
e 76 50
e 76 51
e 76 54
e 76 59
e 76 62
e 76 63
e 76 67
e 76 69
e 76 70
e 76 72
e 76 75
e 77 1
e 77 2
e 77 5
e 77 7
e 77 8
e 77 10
e 77 12
e 77 17
e 77 18
e 77 19
e 77 20
e 77 21
e 77 22
e 77 23
e 77 26
e 77 27
e 77 29
e 77 31
e 77 32
e 77 34
e 77 35
e 77 37
e 77 40
e 77 42
e 77 44
e 77 46
e 77 47
e 77 49
e 77 50
e 77 52
e 77 53
e 77 54
e 77 55
e 77 56
e 77 57
e 77 61
e 77 62
e 77 63
e 77 65
e 77 71
e 77 72
e 77 73
e 78 4
e 78 5
e 78 6
e 78 7
e 78 8
e 78 12
e 78 15
e 78 16
e 78 17
e 78 18
e 78 20
e 78 23
e 78 24
e 78 28
e 78 31
e 78 33
e 78 39
e 78 41
e 78 42
e 78 43
e 78 50
e 78 51
e 78 53
e 78 55
e 78 56
e 78 58
e 78 59
e 78 60
e 78 63
e 78 67
e 78 68
e 78 69
e 78 71
e 78 72
e 78 73
e 78 74
e 78 77
e 79 1
e 79 2
e 79 3
e 79 5
e 79 7
e 79 8
e 79 10
e 79 11
e 79 13
e 79 14
e 79 18
e 79 19
e 79 20
e 79 23
e 79 24
e 79 25
e 79 26
e 79 28
e 79 32
e 79 35
e 79 36
e 79 37
e 79 39
e 79 40
e 79 41
e 79 42
e 79 47
e 79 48
e 79 50
e 79 51
e 79 52
e 79 58
e 79 59
e 79 60
e 79 61
e 79 63
e 79 64
e 79 65
e 79 66
e 79 69
e 79 73
e 79 76
e 79 77
e 80 1
e 80 2
e 80 6
e 80 7
e 80 8
e 80 10
e 80 11
e 80 12
e 80 13
e 80 15
e 80 16
e 80 18
e 80 21
e 80 22
e 80 25
e 80 26
e 80 28
e 80 29
e 80 35
e 80 37
e 80 38
e 80 40
e 80 46
e 80 47
e 80 51
e 80 52
e 80 54
e 80 56
e 80 57
e 80 58
e 80 59
e 80 60
e 80 61
e 80 62
e 80 64
e 80 66
e 80 67
e 80 68
e 80 70
e 80 72
e 80 76
e 80 78
e 80 79
e 81 1
e 81 2
e 81 4
e 81 5
e 81 6
e 81 9
e 81 10
e 81 13
e 81 16
e 81 17
e 81 18
e 81 19
e 81 20
e 81 21
e 81 23
e 81 25
e 81 26
e 81 28
e 81 29
e 81 30
e 81 31
e 81 35
e 81 37
e 81 38
e 81 39
e 81 40
e 81 44
e 81 48
e 81 49
e 81 50
e 81 52
e 81 56
e 81 58
e 81 60
e 81 61
e 81 66
e 81 71
e 81 73
e 81 74
e 81 75
e 81 78
e 82 3
e 82 4
e 82 9
e 82 14
e 82 15
e 82 21
e 82 23
e 82 25
e 82 30
e 82 31
e 82 32
e 82 39
e 82 40
e 82 41
e 82 43
e 82 45
e 82 46
e 82 48
e 82 49
e 82 53
e 82 54
e 82 55
e 82 57
e 82 58
e 82 59
e 82 60
e 82 61
e 82 62
e 82 63
e 82 67
e 82 72
e 82 74
e 82 75
e 82 77
e 82 79
e 82 81
e 83 1
e 83 2
e 83 3
e 83 7
e 83 8
e 83 10
e 83 12
e 83 13
e 83 18
e 83 19
e 83 20
e 83 21
e 83 22
e 83 25
e 83 29
e 83 31
e 83 32
e 83 34
e 83 36
e 83 38
e 83 39
e 83 40
e 83 43
e 83 44
e 83 45
e 83 46
e 83 48
e 83 49
e 83 52
e 83 53
e 83 54
e 83 55
e 83 56
e 83 60
e 83 62
e 83 65
e 83 67
e 83 69
e 83 70
e 83 71
e 83 73
e 83 75
e 83 76
e 83 77
e 83 78
e 83 80
e 84 1
e 84 2
e 84 4
e 84 5
e 84 10
e 84 12
e 84 14
e 84 15
e 84 17
e 84 19
e 84 22
e 84 23
e 84 24
e 84 27
e 84 29
e 84 30
e 84 33
e 84 34
e 84 35
e 84 36
e 84 38
e 84 40
e 84 42
e 84 43
e 84 47
e 84 49
e 84 50
e 84 53
e 84 54
e 84 57
e 84 61
e 84 62
e 84 65
e 84 66
e 84 67
e 84 68
e 84 69
e 84 70
e 84 71
e 84 73
e 84 75
e 84 78
e 84 79
e 84 80
e 84 82
e 85 1
e 85 2
e 85 5
e 85 12
e 85 14
e 85 16
e 85 17
e 85 20
e 85 21
e 85 22
e 85 24
e 85 25
e 85 26
e 85 28
e 85 31
e 85 32
e 85 33
e 85 38
e 85 39
e 85 41
e 85 43
e 85 45
e 85 46
e 85 47
e 85 50
e 85 53
e 85 56
e 85 57
e 85 59
e 85 60
e 85 63
e 85 66
e 85 68
e 85 70
e 85 71
e 85 75
e 85 76
e 85 77
e 86 9
e 86 10
e 86 14
e 86 16
e 86 17
e 86 20
e 86 22
e 86 24
e 86 25
e 86 28
e 86 29
e 86 36
e 86 37
e 86 38
e 86 40
e 86 41
e 86 43
e 86 45
e 86 48
e 86 49
e 86 52
e 86 54
e 86 57
e 86 58
e 86 60
e 86 61
e 86 65
e 86 67
e 86 70
e 86 71
e 86 73
e 86 74
e 86 77
e 86 78
e 86 80
e 86 84
e 86 85
e 87 1
e 87 3
e 87 4
e 87 7
e 87 11
e 87 13
e 87 14
e 87 15
e 87 16
e 87 17
e 87 19
e 87 22
e 87 26
e 87 29
e 87 31
e 87 34
e 87 36
e 87 38
e 87 40
e 87 43
e 87 45
e 87 46
e 87 48
e 87 49
e 87 50
e 87 52
e 87 57
e 87 58
e 87 59
e 87 62
e 87 64
e 87 66
e 87 68
e 87 70
e 87 71
e 87 72
e 87 75
e 87 76
e 87 78
e 87 79
e 87 80
e 87 81
e 87 84
e 87 86
e 88 1
e 88 2
e 88 4
e 88 7
e 88 8
e 88 9
e 88 10
e 88 12
e 88 13
e 88 14
e 88 15
e 88 16
e 88 17
e 88 19
e 88 22
e 88 23
e 88 24
e 88 26
e 88 27
e 88 28
e 88 29
e 88 31
e 88 35
e 88 37
e 88 38
e 88 41
e 88 42
e 88 48
e 88 50
e 88 51
e 88 54
e 88 56
e 88 59
e 88 61
e 88 62
e 88 64
e 88 67
e 88 71
e 88 72
e 88 75
e 88 76
e 88 77
e 88 78
e 88 80
e 88 84
e 88 87
e 89 1
e 89 2
e 89 3
e 89 5
e 89 6
e 89 9
e 89 10
e 89 12
e 89 13
e 89 14
e 89 19
e 89 20
e 89 23
e 89 27
e 89 30
e 89 31
e 89 32
e 89 34
e 89 39
e 89 46
e 89 51
e 89 53
e 89 55
e 89 56
e 89 57
e 89 58
e 89 60
e 89 62
e 89 67
e 89 70
e 89 71
e 89 74
e 89 75
e 89 76
e 89 80
e 89 81
e 89 82
e 89 85
e 89 87
e 90 2
e 90 4
e 90 6
e 90 8
e 90 16
e 90 17
e 90 19
e 90 20
e 90 21
e 90 23
e 90 24
e 90 25
e 90 27
e 90 32
e 90 34
e 90 35
e 90 36
e 90 37
e 90 39
e 90 40
e 90 42
e 90 45
e 90 46
e 90 50
e 90 51
e 90 52
e 90 53
e 90 56
e 90 59
e 90 60
e 90 61
e 90 62
e 90 63
e 90 66
e 90 67
e 90 69
e 90 70
e 90 71
e 90 72
e 90 73
e 90 77
e 90 78
e 90 80
e 90 81
e 90 83
e 90 84
e 90 85
e 90 86
e 91 1
e 91 2
e 91 5
e 91 6
e 91 11
e 91 16
e 91 17
e 91 18
e 91 19
e 91 20
e 91 26
e 91 27
e 91 28
e 91 29
e 91 31
e 91 32
e 91 37
e 91 38
e 91 39
e 91 41
e 91 43
e 91 44
e 91 46
e 91 47
e 91 48
e 91 49
e 91 51
e 91 52
e 91 53
e 91 54
e 91 58
e 91 60
e 91 61
e 91 63
e 91 64
e 91 68
e 91 69
e 91 72
e 91 74
e 91 76
e 91 77
e 91 78
e 91 79
e 91 80
e 91 81
e 91 82
e 91 83
e 91 84
e 91 90
e 92 1
e 92 3
e 92 7
e 92 11
e 92 12
e 92 13
e 92 14
e 92 16
e 92 18
e 92 19
e 92 22
e 92 23
e 92 26
e 92 30
e 92 31
e 92 33
e 92 36
e 92 38
e 92 40
e 92 42
e 92 44
e 92 47
e 92 49
e 92 51
e 92 54
e 92 60
e 92 63
e 92 64
e 92 67
e 92 68
e 92 71
e 92 72
e 92 73
e 92 74
e 92 75
e 92 77
e 92 79
e 92 81
e 92 82
e 92 84
e 92 87
e 92 88
e 92 89
e 92 90
e 93 1
e 93 2
e 93 4
e 93 17
e 93 20
e 93 21
e 93 22
e 93 23
e 93 27
e 93 28
e 93 29
e 93 32
e 93 33
e 93 34
e 93 35
e 93 39
e 93 40
e 93 41
e 93 42
e 93 43
e 93 45
e 93 46
e 93 50
e 93 51
e 93 53
e 93 57
e 93 58
e 93 59
e 93 60
e 93 63
e 93 65
e 93 67
e 93 68
e 93 71
e 93 73
e 93 76
e 93 79
e 93 82
e 93 83
e 93 86
e 93 87
e 93 88
e 93 90
e 93 91
e 93 92
e 94 3
e 94 6
e 94 7
e 94 9
e 94 11
e 94 13
e 94 16
e 94 17
e 94 19
e 94 22
e 94 24
e 94 25
e 94 27
e 94 29
e 94 32
e 94 33
e 94 36
e 94 39
e 94 43
e 94 45
e 94 50
e 94 51
e 94 53
e 94 55
e 94 56
e 94 61
e 94 62
e 94 63
e 94 64
e 94 65
e 94 66
e 94 68
e 94 71
e 94 74
e 94 76
e 94 78
e 94 79
e 94 80
e 94 81
e 94 83
e 94 84
e 94 85
e 94 86
e 94 87
e 94 89
e 94 90
e 94 91
e 94 93
e 95 9
e 95 10
e 95 11
e 95 14
e 95 15
e 95 16
e 95 17
e 95 20
e 95 22
e 95 26
e 95 27
e 95 29
e 95 30
e 95 31
e 95 33
e 95 36
e 95 37
e 95 39
e 95 40
e 95 45
e 95 46
e 95 47
e 95 48
e 95 49
e 95 50
e 95 53
e 95 54
e 95 55
e 95 59
e 95 60
e 95 63
e 95 64
e 95 65
e 95 67
e 95 68
e 95 69
e 95 74
e 95 76
e 95 78
e 95 83
e 95 84
e 95 86
e 95 88
e 95 91
e 95 92
e 95 93
e 95 94
e 96 2
e 96 7
e 96 13
e 96 15
e 96 16
e 96 18
e 96 19
e 96 20
e 96 25
e 96 27
e 96 29
e 96 31
e 96 35
e 96 36
e 96 37
e 96 38
e 96 40
e 96 42
e 96 45
e 96 46
e 96 47
e 96 48
e 96 52
e 96 53
e 96 55
e 96 56
e 96 57
e 96 58
e 96 61
e 96 62
e 96 63
e 96 64
e 96 65
e 96 68
e 96 71
e 96 72
e 96 78
e 96 79
e 96 80
e 96 82
e 96 83
e 96 86
e 96 87
e 96 91
e 96 92
e 96 93
e 96 95
e 97 3
e 97 6
e 97 7
e 97 8
e 97 11
e 97 13
e 97 18
e 97 19
e 97 21
e 97 23
e 97 27
e 97 29
e 97 30
e 97 34
e 97 35
e 97 39
e 97 40
e 97 42
e 97 43
e 97 46
e 97 47
e 97 48
e 97 49
e 97 55
e 97 57
e 97 60
e 97 61
e 97 63
e 97 64
e 97 65
e 97 67
e 97 69
e 97 73
e 97 75
e 97 77
e 97 80
e 97 81
e 97 86
e 97 87
e 97 89
e 97 90
e 97 93
e 97 94
e 97 96
e 98 6
e 98 7
e 98 8
e 98 9
e 98 11
e 98 12
e 98 13
e 98 22
e 98 24
e 98 25
e 98 28
e 98 30
e 98 31
e 98 32
e 98 35
e 98 36
e 98 39
e 98 40
e 98 41
e 98 44
e 98 45
e 98 46
e 98 47
e 98 50
e 98 51
e 98 53
e 98 56
e 98 59
e 98 60
e 98 62
e 98 63
e 98 65
e 98 66
e 98 67
e 98 69
e 98 70
e 98 72
e 98 74
e 98 76
e 98 77
e 98 80
e 98 81
e 98 82
e 98 83
e 98 84
e 98 85
e 98 87
e 98 89
e 98 91
e 98 92
e 98 93
e 98 94
e 98 95
e 98 97
e 99 2
e 99 3
e 99 4
e 99 6
e 99 7
e 99 8
e 99 10
e 99 11
e 99 13
e 99 14
e 99 15
e 99 16
e 99 25
e 99 28
e 99 30
e 99 33
e 99 34
e 99 35
e 99 36
e 99 38
e 99 40
e 99 42
e 99 43
e 99 44
e 99 45
e 99 54
e 99 55
e 99 56
e 99 58
e 99 61
e 99 62
e 99 63
e 99 64
e 99 66
e 99 67
e 99 68
e 99 72
e 99 73
e 99 75
e 99 77
e 99 82
e 99 83
e 99 87
e 99 89
e 99 91
e 99 93
e 100 1
e 100 4
e 100 5
e 100 7
e 100 10
e 100 13
e 100 14
e 100 16
e 100 19
e 100 20
e 100 24
e 100 28
e 100 29
e 100 30
e 100 31
e 100 34
e 100 36
e 100 37
e 100 38
e 100 41
e 100 42
e 100 46
e 100 48
e 100 50
e 100 51
e 100 52
e 100 53
e 100 54
e 100 55
e 100 56
e 100 57
e 100 58
e 100 59
e 100 60
e 100 63
e 100 64
e 100 66
e 100 67
e 100 68
e 100 70
e 100 71
e 100 73
e 100 75
e 100 76
e 100 77
e 100 81
e 100 83
e 100 85
e 100 87
e 100 93
e 100 97
e 100 98
e 100 99
n 1 11
n 2 18
n 3 7
n 4 11
n 5 20
n 6 11
n 7 15
n 8 20
n 9 18
n 10 20
n 11 4
n 12 14
n 13 9
n 14 10
n 15 13
n 16 15
n 17 16
n 18 9
n 19 8
n 20 5
n 21 4
n 22 4
n 23 14
n 24 15
n 25 13
n 26 5
n 27 2
n 28 7
n 29 4
n 30 12
n 31 6
n 32 15
n 33 9
n 34 12
n 35 5
n 36 8
n 37 3
n 38 19
n 39 8
n 40 20
n 41 19
n 42 11
n 43 13
n 44 8
n 45 1
n 46 6
n 47 2
n 48 16
n 49 14
n 50 10
n 51 20
n 52 18
n 53 14
n 54 14
n 55 12
n 56 6
n 57 18
n 58 14
n 59 12
n 60 2
n 61 5
n 62 18
n 63 16
n 64 14
n 65 10
n 66 1
n 67 1
n 68 12
n 69 20
n 70 8
n 71 11
n 72 18
n 73 19
n 74 4
n 75 6
n 76 20
n 77 9
n 78 8
n 79 15
n 80 3
n 81 17
n 82 15
n 83 20
n 84 10
n 85 9
n 86 11
n 87 16
n 88 6
n 89 4
n 90 7
n 91 8
n 92 9
n 93 4
n 94 3
n 95 2
n 96 13
n 97 3
n 98 3
n 99 4
n 100 2
